10	5
0	4	2	8	3	1
1	1	4
2	2	7	10
3	3	6	7	10
4	2	6	5
5	3	10	7	9
6	1	11
7	1	11
8	1	11
9	1	11
10	1	11
11	0
0	0	0	0	0	0	0
1	10	1	2	1	2	5
2	9	5	4	4	5	1
3	1	4	3	5	2	3
4	4	1	5	1	0	2
5	2	5	2	0	2	1
6	2	0	2	0	0	0
7	4	0	2	5	1	4
8	8	0	1	3	2	0
9	9	4	4	4	5	3
10	1	5	0	0	3	0
11	0	0	0	0	0	0
6	6	7	7	6
